100
128
22
22
19
4
47
17
31
1
25
56
45
29
3
33
7
59
14
16
5
9
37
62
53
50
44
37
9
50
11
63
5
54
7
2
45
27
31
6
26
53
4
20
1
60
58
41
34
1
15
32
30
43
26
40
55
26
3
49
55
64
24
63
49
9
8
42
32
37
63
49
26
32
60
16
57
3
38
8
24
44
7
53
19
29
60
19
36
26
5
32
60
42
61
45
22
25
2
30
43
57